data/solutions/recovery/wellformed/intermediate/binding/wellformed_intermediate_instance68/12.sol
Elapsed time: 0.51
Upper bound: 27862.0
Planning weighted value: 454724617.0
C[0]=27862.0
C[1]=27825.0
C[2]=27807.0
C[3]=27802.0
C[4]=27766.0
C[5]=27756.0
C[6]=27700.0
C[7]=27577.0
C[8]=27486.0
C[9]=27355.0
C[10]=27218.0
C[11]=27157.0
C[12]=27137.0
C[13]=27123.0
y[0]=3
y[1]=3
y[2]=5
y[3]=3
y[4]=3
y[5]=0
y[6]=1
y[7]=3
y[8]=2
y[9]=1
y[10]=11
y[11]=8
y[12]=4
y[13]=4
y[14]=5
y[15]=12
y[16]=11
y[17]=12
y[18]=7
y[19]=8
y[20]=6
y[21]=11
y[22]=0
y[23]=3
y[24]=6
y[25]=5
y[26]=13
y[27]=5
y[28]=7
y[29]=8
y[30]=13
y[31]=3
y[32]=12
y[33]=5
y[34]=9
y[35]=13
y[36]=5
y[37]=10
y[38]=9
y[39]=9
y[40]=0
y[41]=9
y[42]=9
y[43]=11
y[44]=9
y[45]=1
y[46]=7
y[47]=7
y[48]=11
y[49]=2
y[50]=10
y[51]=2
y[52]=0
y[53]=1
y[54]=5
y[55]=9
y[56]=11
y[57]=7
y[58]=11
y[59]=4
y[60]=1
y[61]=6
y[62]=7
y[63]=1
y[64]=13
y[65]=5
y[66]=8
y[67]=8
y[68]=10
y[69]=2
y[70]=12
y[71]=3
y[72]=4
y[73]=4
y[74]=13
y[75]=4
y[76]=8
y[77]=12
y[78]=5
y[79]=9
y[80]=4
y[81]=6
y[82]=3
y[83]=11
y[84]=0
y[85]=1
y[86]=9
y[87]=10
y[88]=8
y[89]=7
y[90]=10
y[91]=5
y[92]=3
y[93]=0
y[94]=7
y[95]=0
y[96]=10
y[97]=6
y[98]=5
y[99]=5
y[100]=8
y[101]=11
y[102]=1
y[103]=6
y[104]=2
y[105]=2
y[106]=13
y[107]=6
y[108]=4
y[109]=11
y[110]=3
y[111]=13
y[112]=0
y[113]=9
y[114]=2
y[115]=11
y[116]=9
y[117]=2
y[118]=4
y[119]=11
y[120]=13
y[121]=5
y[122]=0
y[123]=0
y[124]=1
y[125]=4
y[126]=0
y[127]=3
y[128]=3
y[129]=6
y[130]=11
y[131]=9
y[132]=1
y[133]=12
y[134]=13
y[135]=1
y[136]=7
y[137]=6
y[138]=8
y[139]=2
y[140]=6
y[141]=8
y[142]=13
y[143]=8
y[144]=9
y[145]=5
y[146]=4
y[147]=4
y[148]=1
y[149]=9
y[150]=7
y[151]=11
y[152]=11
y[153]=13
y[154]=8
y[155]=5
y[156]=1
y[157]=10
y[158]=2
y[159]=7
y[160]=9
y[161]=9
y[162]=13
y[163]=8
y[164]=8
y[165]=11
y[166]=1
y[167]=0
y[168]=1
y[169]=12
y[170]=7
y[171]=2
y[172]=6
y[173]=2
y[174]=2
y[175]=3
y[176]=0
y[177]=6
y[178]=10
y[179]=6
y[180]=8
y[181]=8
y[182]=12
y[183]=12
y[184]=2
y[185]=2
y[186]=9
y[187]=11
y[188]=2
y[189]=10
y[190]=7
y[191]=3
y[192]=8
y[193]=3
y[194]=11
y[195]=9
y[196]=3
y[197]=6
y[198]=11
y[199]=3
y[200]=0
y[201]=11
y[202]=10
y[203]=4
y[204]=0
y[205]=4
y[206]=0
y[207]=4
y[208]=5
y[209]=2
y[210]=9
y[211]=2
y[212]=9
y[213]=2
y[214]=1
y[215]=12
y[216]=10
y[217]=13
y[218]=8
y[219]=7
y[220]=10
y[221]=1
y[222]=7
y[223]=0
y[224]=11
y[225]=8
y[226]=6
y[227]=0
y[228]=2
y[229]=12
y[230]=4
y[231]=3
y[232]=6
y[233]=13
y[234]=11
y[235]=11
y[236]=6
y[237]=7
y[238]=6
y[239]=10
y[240]=13
y[241]=8
y[242]=7
y[243]=0
y[244]=0
y[245]=12
y[246]=2
y[247]=4
y[248]=3
y[249]=2
y[250]=9
y[251]=5
y[252]=13
y[253]=6
y[254]=13
y[255]=12
y[256]=13
y[257]=9
y[258]=13
y[259]=0
y[260]=5
y[261]=4
y[262]=2
y[263]=2
y[264]=5
y[265]=12
y[266]=13
y[267]=6
y[268]=2
y[269]=8
y[270]=12
y[271]=13
y[272]=4
y[273]=1
y[274]=5
y[275]=6
y[276]=3
y[277]=6
y[278]=0
y[279]=2
y[280]=0
y[281]=3
y[282]=8
y[283]=10
y[284]=8
y[285]=0
y[286]=12
y[287]=13
y[288]=10
y[289]=4
y[290]=8
y[291]=12
y[292]=2
y[293]=2
y[294]=12
y[295]=0
y[296]=1
y[297]=5
y[298]=4
y[299]=3
y[300]=2
y[301]=5
y[302]=10
y[303]=13
y[304]=7
y[305]=2
y[306]=5
y[307]=7
y[308]=4
y[309]=8
y[310]=10
y[311]=4
y[312]=4
y[313]=2
y[314]=0
y[315]=10
y[316]=3
y[317]=13
y[318]=1
y[319]=11
y[320]=12
y[321]=3
y[322]=2
y[323]=3
y[324]=2
y[325]=8
y[326]=6
y[327]=10
y[328]=4
y[329]=1
y[330]=3
y[331]=3
y[332]=13
y[333]=3
y[334]=0
y[335]=10
y[336]=1
y[337]=1
y[338]=6
y[339]=12
y[340]=4
y[341]=12
y[342]=2
y[343]=11
y[344]=13
y[345]=1
y[346]=7
y[347]=2
y[348]=10
y[349]=13
y[350]=7
y[351]=10
y[352]=12
y[353]=10
y[354]=7
y[355]=2
y[356]=2
y[357]=5
y[358]=10
y[359]=1
y[360]=13
y[361]=12
y[362]=12
y[363]=0
y[364]=6
y[365]=2
y[366]=3
y[367]=11
y[368]=1
y[369]=1
y[370]=6
y[371]=7
y[372]=9
y[373]=1
y[374]=7
y[375]=12
y[376]=13
y[377]=2
y[378]=9
y[379]=8
y[380]=4
y[381]=12
y[382]=7
y[383]=3
y[384]=12
y[385]=3
y[386]=0
y[387]=0
y[388]=9
y[389]=9
y[390]=2
y[391]=2
y[392]=0
y[393]=9
y[394]=6
y[395]=7
y[396]=10
y[397]=6
y[398]=5
y[399]=10
y[400]=12
y[401]=13
y[402]=2
y[403]=6
y[404]=6
y[405]=7
y[406]=9
y[407]=13
y[408]=12
y[409]=6
y[410]=7
y[411]=6
y[412]=1
y[413]=9
y[414]=11
y[415]=10
y[416]=5
y[417]=2
y[418]=6
y[419]=2
y[420]=5
y[421]=3
