data/solutions/recovery/wellformed/intermediate/binding/wellformed_intermediate_instance68/12.log

Log started (V12.6.3.0) Fri Apr 20 22:51:52 2018

New value for default parallel thread count: 1

Problem '/tmp/tmpjbU_aD.pyomo.lp' read.
Read time = 0.29 sec. (29.65 ticks)

Problem name         : /tmp/tmpjbU_aD.pyomo.lp
Objective sense      : Minimize
Variables            :    5924  [Nneg: 1,  Binary: 5908,  General Integer: 15]
Objective nonzeros   :       1
Linear constraints   :     873  [Less: 436,  Equal: 437]
  Nonzeros           : 2206021
  RHS nonzeros       :     423

Variables            : Min LB: 0.000000         Max UB: 1.000000       
Objective nonzeros   : Min   : 1.000000         Max   : 1.000000       
Linear constraints   :
  Nonzeros           : Min   : 1.000000         Max   : 1991.000       
  RHS nonzeros       : Min   : 1.000000         Max   : 1.000000       
Tried aggregator 2 times.
MIP Presolve eliminated 823 rows and 5601 columns.
Aggregator did 14 substitutions.
Reduced MIP has 36 rows, 309 columns, and 630 nonzeros.
Reduced MIP has 308 binaries, 1 generals, 0 SOSs, and 0 indicators.
Presolve time = 0.07 sec. (118.70 ticks)
Found incumbent of value 49521.000000 after 0.16 sec. (169.63 ticks)
Probing time = 0.00 sec. (0.39 ticks)
Tried aggregator 1 time.
Reduced MIP has 36 rows, 309 columns, and 630 nonzeros.
Reduced MIP has 308 binaries, 1 generals, 0 SOSs, and 0 indicators.
Presolve time = 0.00 sec. (0.58 ticks)
Probing time = 0.00 sec. (0.39 ticks)
Clique table members: 22.
MIP emphasis: balance optimality and feasibility.
MIP search method: dynamic search.
Parallel mode: none, using 1 thread.
Root relaxation solution time = 0.00 sec. (0.51 ticks)

        Nodes                                         Cuts/
   Node  Left     Objective  IInf  Best Integer    Best Bound    ItCnt     Gap

*     0+    0                        49521.0000    27862.0000            43.74%
      0     0    27862.0000    15    49521.0000    27862.0000       63   43.74%
*     0+    0                        28700.0000    27862.0000             2.92%
      0     0    27862.0000     8    28700.0000       Cuts: 3       73    2.92%
*     0+    0                        28170.0000    27862.0000             1.09%
      0     0    27862.0000    10    28170.0000      Cuts: 14       83    1.09%
      0     0    27862.0000     7    28170.0000       Cuts: 3       88    1.09%
*     0+    0                        27909.0000    27862.0000             0.17%
*     0+    0                        27862.0000    27862.0000             0.00%
      0     0        cutoff          27862.0000    27862.0000       88    0.00%
Elapsed time = 0.17 sec. (179.88 ticks, tree = 0.01 MB, solutions = 5)

Cover cuts applied:  1
Mixed integer rounding cuts applied:  6
Zero-half cuts applied:  6
Gomory fractional cuts applied:  6

Root node processing (before b&c):
  Real time             =    0.17 sec. (180.20 ticks)
Sequential b&c:
  Real time             =    0.00 sec. (0.00 ticks)
                          ------------
Total (root+branch&cut) =    0.17 sec. (180.20 ticks)

Solution pool: 5 solutions saved.

MIP - Integer optimal solution:  Objective =  2.7862000000e+04
Solution time =    0.17 sec.  Iterations = 88  Nodes = 0
Deterministic time = 180.22 ticks  (1064.97 ticks/sec)


Incumbent solution written to file '/tmp/tmpXrJiNu.cplex.sol'.
